NAME : XML100_3335_01
DIMENSION : 101
NB_CLUSTERS : 3
CLUSTERING_ALG : KMedoids
CLUSTERING_PARAMS : k(2)
CLUSTERS
1 0
2 1 6 12 15 16 17 19 23 25 27 30 31 35 37 38 39 41 45 47 49 53 55 56 61 64 66 68 71 72 73 75 79 81 83 84 85 89 91 95 97 99 100
3 2 3 4 5 7 8 9 10 11 13 14 18 20 21 22 24 26 28 29 32 33 34 36 40 42 43 44 46 48 50 51 52 54 57 58 59 60 62 63 65 67 69 70 74 76 77 78 80 82 86 87 88 90 92 93 94 96 98
EOF